NAME: A-n37-f6
COMMENT : -
TYPE : GVRP
DIMENSION : 42
EDGE_WEIGHT_TYPE : EUC_2D
CAPACITY : 100
AUTONOMY : 60
DEPOT_COORD_SECTION
1 69 63
CUSTOMER_COORD_SECTION
2 3 35
3 71 79
4 1 47
5 11 15
6 87 23
7 37 33
8 87 29
9 35 81
10 55 71
11 41 51
12 93 9
13 11 49
14 75 89
15 75 69
16 97 95
17 15 13
18 63 95
19 47 41
20 45 41
21 89 43
22 45 59
23 95 23
24 19 83
25 71 69
26 27 19
27 17 57
28 93 15
29 59 29
30 35 39
31 33 51
32 61 21
33 89 53
34 33 85
35 37 37
36 21 91
37 67 95
38 61 15
AFS_COORD_SECTION
39 32 31
40 15 63
41 83 35
42 32 11
43 73 85
EOF